WARNING: for repeatability, setting FPU to use double precision
============================[ Problem Statistics ]=============================
|                                                                             |
|  Number of variables:            50                                         |
|  Number of clauses:             218                                         |
|  Parse time:                   0.00 s                                       |
|                                                                             |
============================[ Search Statistics ]==============================
| Conflicts |          ORIGINAL         |          LEARNT          | Progress |
|           |    Vars  Clauses Literals |    Limit  Clauses Lit/Cl |          |
===============================================================================
===============================================================================
restarts              : 1
conflicts             : 28             (304348 /sec)
decisions             : 29             (0.00 % random) (315217 /sec)
propagations          : 289            (3141304 /sec)
conflict literals     : 77             (12.50 % deleted)
Memory used           : 20.00 MB
CPU time              : 9.2e-05 s

UNSATISFIABLE
